% seed = 0

mint = 51;
% maxt = 234;

nActs = 92;
dur = [0,6,3,4,1,5,4,1,2,4,2,1,3,2,3,3,2,3,1,2,3,1,2,3,3,3,2,2,1,1,2,3,2,4,2,8,5,3,2,4,2,2,1,6,3,1,1,2,4,1,2,3,2,3,4,1,4,6,3,2,2,2,5,2,2,1,5,3,2,5,1,2,2,2,1,2,2,1,4,2,3,5,3,1,1,2,2,2,3,1,2,0];

nSkills = 12;
sreq = [| 0,0,0,0,0,0,0,0,0,0,0,0,
	| 0,0,0,1,0,0,0,0,1,0,1,0,
	| 0,0,1,0,1,0,0,1,0,0,0,0,
	| 0,0,0,0,0,0,1,2,0,0,0,0,
	| 0,0,0,0,0,1,1,0,0,0,0,0,
	| 0,0,1,0,0,0,0,0,1,0,0,0,
	| 0,0,0,0,0,0,0,0,2,0,0,0,
	| 0,0,0,0,0,0,0,0,1,0,0,0,
	| 0,0,1,0,1,0,0,0,1,0,0,0,
	| 0,0,0,0,0,0,0,1,0,0,0,0,
	| 0,0,1,0,0,1,0,1,0,0,0,1,
	| 0,0,0,1,0,0,0,0,0,0,0,0,
	| 0,0,1,0,0,0,0,0,0,0,0,0,
	| 0,0,1,1,0,1,0,0,0,0,0,0,
	| 0,0,1,0,1,0,1,0,0,0,0,0,
	| 0,0,0,0,0,1,0,0,0,1,0,0,
	| 0,0,0,1,0,0,0,0,0,0,0,0,
	| 0,0,0,0,0,0,1,2,0,0,0,0,
	| 0,0,1,0,1,0,0,0,1,0,0,0,
	| 0,0,0,0,0,0,0,1,1,0,0,0,
	| 0,0,1,0,0,1,0,0,0,0,0,0,
	| 0,0,1,0,0,0,0,1,0,0,0,0,
	| 0,0,0,0,0,0,1,0,0,0,0,0,
	| 0,0,0,0,1,0,0,0,0,0,0,0,
	| 0,0,2,0,0,0,0,0,0,1,0,0,
	| 0,0,0,1,0,0,0,0,1,0,0,0,
	| 0,0,0,0,1,0,0,0,2,0,0,0,
	| 0,0,0,0,1,0,0,1,0,0,0,0,
	| 0,0,0,0,0,0,0,0,0,1,0,0,
	| 1,0,0,1,1,0,0,0,0,0,0,0,
	| 1,0,1,0,0,1,0,0,0,0,0,0,
	| 0,0,1,0,1,0,0,1,0,0,0,0,
	| 0,0,0,1,0,0,0,0,0,0,0,0,
	| 0,0,0,1,1,0,0,0,0,0,0,0,
	| 0,0,1,0,1,0,0,0,1,0,0,0,
	| 0,0,0,0,0,0,0,1,0,0,0,0,
	| 0,0,0,0,0,0,0,0,0,0,1,0,
	| 0,0,2,0,0,0,0,0,0,0,0,0,
	| 0,0,0,1,0,0,0,0,1,1,0,0,
	| 0,0,0,0,0,0,1,1,1,0,0,0,
	| 0,0,2,1,0,0,0,0,0,0,0,0,
	| 0,0,0,0,0,1,0,1,0,0,1,0,
	| 0,0,0,0,1,0,0,1,0,0,0,0,
	| 0,0,1,0,0,0,0,1,0,0,0,0,
	| 0,0,0,0,0,0,0,1,1,0,0,0,
	| 0,0,0,0,0,0,0,2,0,0,1,0,
	| 0,0,1,0,0,0,0,0,1,0,0,0,
	| 0,1,1,0,0,1,0,0,0,0,0,0,
	| 0,0,0,1,1,0,0,0,0,0,0,0,
	| 0,0,0,1,0,0,0,1,0,0,0,0,
	| 0,0,1,1,0,0,0,0,1,0,0,0,
	| 0,0,1,0,0,0,0,0,1,0,0,0,
	| 0,0,0,1,0,0,0,1,0,0,0,0,
	| 0,0,1,0,0,0,0,0,1,0,0,0,
	| 0,0,0,0,0,0,0,0,2,0,0,0,
	| 0,0,1,0,0,0,0,0,0,0,2,0,
	| 0,0,0,0,0,0,0,0,0,0,1,0,
	| 0,0,1,0,0,0,0,1,0,0,0,0,
	| 0,0,0,0,0,0,0,1,1,1,0,0,
	| 0,0,0,0,0,0,0,1,0,0,0,0,
	| 0,0,0,0,0,0,0,0,0,0,1,0,
	| 0,0,1,0,2,0,0,0,0,0,0,0,
	| 0,0,0,0,0,0,0,0,1,1,0,0,
	| 0,0,0,0,0,0,0,0,0,1,0,0,
	| 0,0,0,0,0,0,0,1,0,0,0,0,
	| 0,0,1,0,0,0,0,1,0,0,0,0,
	| 0,0,1,1,0,0,0,0,0,1,0,0,
	| 0,0,0,0,0,1,0,0,0,0,0,0,
	| 0,0,1,0,0,0,1,0,0,0,0,0,
	| 0,0,0,0,0,0,0,1,0,0,0,0,
	| 0,0,1,0,0,0,0,0,0,0,0,0,
	| 0,0,0,0,0,0,2,0,0,0,0,0,
	| 0,0,0,0,0,1,0,0,2,0,0,0,
	| 0,0,1,0,0,0,0,0,0,0,0,0,
	| 0,0,2,0,0,0,0,0,0,0,0,0,
	| 0,0,0,1,0,0,0,1,0,0,0,0,
	| 0,0,0,1,0,1,0,0,0,0,0,0,
	| 0,0,1,0,0,0,0,2,0,0,0,0,
	| 0,0,0,0,0,0,2,0,1,0,0,0,
	| 0,0,1,0,0,0,0,0,0,0,0,0,
	| 0,0,1,0,0,1,0,0,0,0,1,0,
	| 0,0,1,0,0,0,0,0,0,0,0,0,
	| 0,0,0,0,0,0,1,0,0,0,0,0,
	| 0,0,0,0,0,0,0,1,0,0,0,0,
	| 1,0,0,0,0,0,0,0,0,0,0,0,
	| 0,0,0,0,0,0,0,1,0,0,0,0,
	| 0,0,2,0,0,0,0,1,0,0,0,0,
	| 0,0,2,0,0,0,0,0,0,0,0,0,
	| 0,0,0,0,0,0,0,0,1,0,0,0,
	| 0,0,1,0,0,0,0,0,1,0,0,0,
	| 0,0,0,0,0,0,0,0,1,0,0,0,
	| 0,0,0,0,0,0,0,0,0,0,0,0, |];

% SumOfsreq = 184;

nResources = 10;
mastery = [| false,false,false,false,false,true,false,true,true,true,true,true,
	| false,false,false,false,false,false,false,true,true,false,false,false,
	| false,false,true,false,false,false,false,false,false,false,false,false,
	| false,false,false,false,false,false,true,true,true,true,true,true,
	| true,true,true,false,false,false,true,true,true,false,false,false,
	| false,false,false,true,true,true,false,false,false,false,false,false,
	| false,false,true,false,false,false,false,false,false,false,false,false,
	| false,false,false,true,true,true,false,false,false,false,false,false,
	| false,false,false,false,false,false,true,true,true,false,false,false,
	| false,false,false,true,true,true,false,false,false,false,false,false, |];

nPrecs = 194;
pred = [1,1,1,2,2,3,3,3,4,4,4,5,5,5,6,6,7,7,7,8,8,8,9,9,9,10,10,10,11,11,11,12,12,12,13,13,14,14,14,15,15,15,16,16,16,17,17,17,18,18,18,19,19,19,20,20,20,21,21,21,22,23,23,24,24,24,25,25,25,26,26,26,27,27,28,28,28,29,29,30,30,30,31,31,32,32,33,33,33,34,35,35,35,36,37,37,37,38,38,38,39,39,39,40,40,41,41,42,42,42,43,43,43,44,44,44,45,45,45,46,47,47,47,48,49,49,49,50,50,50,51,51,52,52,53,53,53,54,54,55,55,55,56,56,57,57,57,58,59,59,60,60,61,61,62,63,63,63,64,64,64,65,66,67,68,68,68,69,69,70,71,72,72,73,74,74,75,76,77,78,78,79,80,81,82,83,84,85,86,87,88,89,90,91];
succ = [2,3,4,73,87,10,5,24,9,23,8,50,6,39,17,7,21,11,13,30,15,16,34,14,30,20,45,15,12,30,48,61,59,45,37,55,44,28,38,19,37,35,17,34,19,33,18,43,59,21,71,26,22,47,42,75,60,26,29,32,36,41,81,25,57,27,84,60,91,41,46,40,33,50,49,35,61,65,31,66,68,52,51,37,36,64,49,65,53,54,51,52,78,69,57,53,54,43,86,48,41,43,86,81,48,54,56,66,67,46,85,77,46,69,62,63,57,60,70,83,82,61,71,82,81,51,79,58,53,71,75,88,59,69,62,63,70,74,80,58,70,63,77,64,58,67,72,68,76,62,65,73,90,87,67,66,68,64,74,83,80,72,76,85,74,76,85,73,72,78,89,77,80,79,75,78,91,79,90,82,84,86,87,83,88,84,90,91,89,88,89,92,92,92];

nUnrels = 2237;
unpred = [2,2,2,2,2,2,2,2,2,2,2,2,2,2,2,2,2,2,2,2,2,2,2,2,2,2,2,2,2,2,2,2,2,2,2,2,2,2,2,2,2,2,2,2,2,2,2,2,2,2,2,2,2,2,2,2,2,2,2,2,2,2,2,2,2,2,2,2,2,2,2,2,2,2,2,2,2,2,2,2,2,2,2,3,3,3,3,3,3,3,3,3,3,4,4,4,4,4,4,4,4,4,4,4,4,4,4,4,4,4,5,5,5,5,5,5,5,5,5,5,5,5,5,5,5,5,5,5,5,5,6,6,6,6,6,6,6,6,6,6,6,6,6,6,6,6,6,6,6,6,6,6,7,7,7,7,7,7,7,7,7,7,7,7,7,7,7,7,7,7,7,7,7,7,7,7,7,7,7,7,8,8,8,8,8,8,8,8,8,8,8,8,8,8,8,8,8,8,8,8,9,9,9,9,9,9,9,9,9,9,9,9,9,9,9,9,9,9,9,9,9,9,9,9,9,9,9,9,9,9,9,9,9,9,9,9,9,9,9,10,10,10,10,10,10,10,10,10,10,10,10,10,10,10,10,10,10,10,10,10,10,10,10,10,10,11,11,11,11,11,11,11,11,11,11,11,11,11,11,11,11,11,11,11,11,11,11,11,11,11,11,11,11,11,11,11,11,11,11,11,11,11,11,11,11,11,11,11,11,11,12,12,12,12,12,12,12,12,12,12,12,12,12,12,12,12,12,12,12,12,12,12,12,12,12,12,12,12,12,12,12,12,12,12,12,12,12,12,12,12,12,12,12,12,12,12,12,12,12,12,13,13,13,13,13,13,13,13,13,13,13,13,13,13,13,13,13,13,13,13,13,13,13,13,13,13,13,13,13,13,13,13,13,13,13,13,13,13,13,13,13,13,13,13,13,13,13,14,14,14,14,14,14,14,14,14,14,14,14,14,14,14,14,14,14,14,14,14,14,14,14,14,14,14,14,14,14,14,14,14,14,14,14,14,14,15,15,15,15,15,15,15,15,15,15,15,15,15,15,15,15,15,15,15,15,15,15,15,15,15,15,15,16,16,16,16,16,16,16,16,16,16,16,16,16,16,16,16,16,17,17,17,17,17,17,17,17,17,17,17,17,17,17,17,17,17,17,17,17,17,17,18,18,18,18,18,18,18,18,18,18,18,18,18,18,18,18,18,18,18,18,18,18,18,18,18,19,19,19,19,19,19,19,19,19,19,19,19,19,19,19,19,19,19,19,19,19,19,19,19,19,19,19,19,19,19,19,19,19,19,19,19,19,19,19,19,20,20,20,20,20,20,20,20,20,20,20,20,20,20,20,20,20,20,20,20,20,20,20,20,20,20,20,20,20,20,20,20,20,20,20,20,20,20,20,20,20,20,20,20,20,20,20,20,20,21,21,21,21,21,21,21,21,21,21,21,21,21,21,21,21,21,21,21,21,21,21,21,21,21,22,22,22,22,22,22,22,22,22,22,22,22,22,22,22,22,22,22,22,22,22,22,22,22,22,22,22,22,22,22,22,22,22,22,22,22,22,22,22,22,22,22,22,22,22,22,22,22,22,22,22,22,22,22,22,22,22,23,23,23,23,23,23,23,23,23,23,23,23,23,23,23,23,23,23,23,23,23,23,23,23,23,23,23,23,23,23,23,23,23,23,23,23,23,23,23,23,23,23,23,23,23,23,23,23,23,23,24,24,24,24,24,24,24,24,24,24,24,24,24,24,24,24,24,24,24,24,24,24,24,24,24,24,24,24,25,25,25,25,25,25,25,25,25,25,25,25,25,25,25,25,25,25,25,25,25,25,25,25,25,25,25,25,25,25,25,25,25,25,25,25,25,25,25,25,25,25,25,25,25,25,25,25,25,25,25,25,26,26,26,26,26,26,26,26,26,26,26,26,26,26,26,26,26,26,26,26,26,26,26,26,26,26,26,26,26,26,26,26,26,26,26,26,26,26,26,26,26,26,26,26,27,27,27,27,27,27,27,27,27,27,27,27,27,27,27,27,27,27,27,27,27,27,27,27,27,27,27,27,27,27,28,28,28,28,28,28,28,28,28,28,28,28,28,28,28,28,28,28,28,28,28,28,28,28,28,28,28,28,28,28,28,28,28,28,28,29,29,29,29,29,29,29,29,29,29,29,29,29,29,29,29,29,29,29,29,29,29,29,29,29,29,29,29,29,30,30,30,30,30,30,30,30,30,30,30,30,30,30,30,30,30,30,30,30,30,30,30,30,30,30,30,30,30,30,30,30,30,30,30,30,31,31,31,31,31,31,31,31,31,31,31,31,31,31,31,31,31,31,31,31,31,31,31,31,31,31,31,31,31,32,32,32,32,32,32,32,32,32,32,32,32,32,32,32,32,32,32,32,32,32,32,32,32,32,32,32,32,32,32,32,32,32,32,32,32,32,32,32,33,33,33,33,33,33,33,33,33,33,33,33,33,33,33,33,33,33,33,33,33,33,33,33,33,33,33,33,34,34,34,34,34,34,34,34,34,34,34,34,34,34,34,34,34,34,34,34,34,34,34,34,34,34,34,34,34,34,34,34,34,34,34,34,34,34,34,34,34,34,34,34,34,35,35,35,35,35,35,35,35,35,35,35,35,35,35,35,35,35,35,35,35,35,35,35,35,35,35,35,35,35,35,35,35,35,36,36,36,36,36,36,36,36,36,36,36,36,36,36,36,36,36,36,36,36,36,36,36,36,36,36,36,36,36,36,36,36,36,36,36,36,36,36,36,36,36,36,36,36,37,37,37,37,37,37,37,37,37,37,37,37,37,37,37,37,37,37,37,37,37,37,37,37,37,38,38,38,38,38,38,38,38,38,38,38,38,38,38,38,38,38,38,38,38,38,38,38,38,38,38,38,38,38,38,38,38,38,38,38,38,38,38,38,38,39,39,39,39,39,39,39,39,39,39,39,39,39,39,39,39,39,39,39,39,39,39,39,39,39,39,39,39,39,39,39,40,40,40,40,40,40,40,40,40,40,40,40,40,40,40,40,40,40,40,40,40,40,40,40,40,40,40,40,40,40,40,40,40,40,40,40,40,40,40,40,40,40,40,41,41,41,41,41,41,41,41,41,41,41,41,41,41,41,41,41,41,41,41,41,41,41,41,41,41,41,41,41,41,41,41,41,41,42,42,42,42,42,42,42,42,42,42,42,42,42,42,42,42,42,42,42,42,42,42,42,42,42,42,42,42,42,42,42,42,42,42,42,42,42,43,43,43,43,43,43,43,43,43,43,43,43,43,43,43,43,43,43,43,43,43,43,43,43,43,43,43,43,43,43,43,43,43,43,43,43,43,43,43,43,43,44,44,44,44,44,44,44,44,44,44,44,44,44,44,44,44,44,44,44,44,44,45,45,45,45,45,45,45,45,45,45,45,45,45,45,45,45,45,45,45,45,45,46,46,46,46,46,46,46,46,46,46,46,46,46,46,46,46,46,46,46,46,46,46,46,46,46,46,46,46,46,46,46,46,46,46,46,46,46,46,46,46,46,46,47,47,47,47,47,47,47,47,47,47,47,47,47,47,47,47,47,47,47,47,47,47,47,47,47,47,47,47,47,47,47,47,47,47,47,47,47,48,48,48,48,48,48,48,48,48,48,48,48,48,48,48,48,48,48,48,48,48,48,48,48,48,48,48,48,48,48,48,48,48,48,48,48,48,48,48,48,49,49,49,49,49,49,49,49,49,49,49,49,49,49,49,49,49,49,49,49,49,49,49,49,49,49,49,49,49,49,49,50,50,50,50,50,50,50,50,50,50,50,50,50,50,50,51,51,51,51,51,51,51,51,51,51,51,51,51,51,51,51,51,51,51,51,51,51,51,51,51,51,51,51,51,51,51,51,51,51,51,51,52,52,52,52,52,52,52,52,52,52,52,52,52,52,52,52,52,52,52,52,52,52,53,53,53,53,53,53,53,53,53,53,53,53,53,53,53,54,54,54,54,54,54,54,54,54,54,54,54,54,54,54,54,54,54,54,54,54,54,54,54,54,54,55,55,55,55,55,55,55,55,55,55,55,55,55,55,56,56,56,56,56,56,56,56,56,56,56,56,56,56,56,56,56,56,56,56,56,57,57,57,57,57,57,57,57,57,57,57,57,57,57,58,58,58,58,58,58,58,58,58,58,58,58,58,58,58,58,58,58,58,59,59,59,59,59,59,59,59,59,59,59,59,59,59,59,59,59,59,59,59,59,59,59,59,60,60,60,60,60,60,60,60,60,60,60,60,60,60,60,60,60,60,60,60,61,61,61,61,61,61,61,61,61,61,61,61,61,61,61,61,61,61,61,61,61,61,61,61,61,61,62,62,62,62,62,62,62,62,62,62,62,62,62,62,62,62,62,62,62,62,62,62,62,62,62,62,63,63,63,63,63,63,63,63,63,64,64,64,64,64,64,64,64,64,64,64,64,64,64,64,65,65,65,65,65,65,65,65,65,65,65,65,65,65,65,65,65,65,65,66,66,66,66,66,66,66,66,66,66,66,66,66,66,66,66,66,66,66,66,66,67,67,67,67,67,67,67,67,67,67,67,67,67,67,67,67,67,67,67,67,67,67,68,68,68,68,68,68,68,68,68,68,69,69,69,69,69,69,69,69,69,69,69,69,70,70,70,70,70,70,70,70,70,70,70,70,70,70,70,71,71,71,71,71,71,71,71,71,71,71,71,71,71,71,71,71,71,71,72,72,72,72,72,72,72,72,72,72,72,72,72,73,73,73,73,73,73,73,73,73,73,73,73,73,73,73,74,74,74,74,74,74,74,74,74,75,75,75,75,75,75,75,75,75,75,75,75,75,75,75,76,76,76,76,76,76,76,76,76,76,76,76,77,77,77,77,77,77,77,77,77,77,77,77,77,78,78,78,78,78,78,78,78,79,79,79,79,79,79,79,79,79,79,80,80,80,80,80,80,80,80,81,81,81,81,81,81,81,82,82,82,82,82,82,82,83,83,83,83,83,83,84,84,84,84,84,84,85,85,85,85,85,86,86,86,86,87,87,88,88,89,89,90];
unsucc = [3,4,5,6,7,8,9,10,11,12,13,14,15,16,17,18,19,20,21,22,23,24,25,26,27,28,29,30,31,32,33,34,35,36,37,38,39,40,41,42,43,44,45,46,47,48,49,50,51,52,53,54,55,56,57,58,59,60,61,62,63,64,65,66,67,68,69,70,71,72,74,75,76,77,78,80,81,82,83,84,85,90,91,4,8,9,14,16,23,28,34,38,44,5,6,7,10,11,12,13,20,24,25,27,39,42,45,50,55,60,8,9,10,14,15,16,19,20,22,23,24,25,27,28,34,35,38,42,44,47,8,9,10,14,15,16,19,20,22,23,24,25,27,28,34,35,38,39,42,44,47,50,8,9,10,14,15,16,17,18,19,20,22,23,24,25,27,28,33,34,35,38,39,42,43,44,47,49,50,71,9,10,11,12,13,14,20,23,24,25,27,28,38,39,42,44,45,50,55,60,10,11,12,13,15,16,17,18,19,20,21,22,23,24,25,26,27,29,31,32,33,36,37,39,40,41,42,45,47,50,53,55,56,57,58,60,65,70,71,11,12,13,14,16,17,18,21,23,24,25,27,28,29,30,31,32,33,34,38,39,43,44,49,50,55,13,14,15,16,17,18,19,20,21,22,23,24,25,26,27,28,29,31,32,33,34,35,36,37,38,39,40,41,42,43,44,46,47,49,50,51,53,54,55,56,63,64,71,81,83,13,14,15,16,17,18,19,20,21,22,23,24,25,26,27,28,29,30,31,32,33,34,35,36,37,38,39,40,41,42,43,44,46,47,48,49,50,51,52,53,54,55,56,63,64,66,69,71,81,83,14,15,16,17,18,19,20,21,22,23,24,25,26,27,28,29,30,31,32,33,34,35,36,38,39,40,41,42,43,44,45,46,47,48,49,50,51,52,56,59,60,61,65,69,71,73,81,15,16,17,18,19,20,21,22,23,24,25,26,27,29,30,31,32,33,34,36,37,39,40,41,42,45,47,50,53,54,55,56,57,58,60,65,70,71,16,17,18,20,21,23,24,25,27,28,29,30,31,32,33,34,38,39,42,43,44,45,49,50,55,60,65,20,23,24,25,27,28,30,35,38,39,42,44,45,50,52,55,60,19,20,22,23,24,25,27,28,30,34,35,38,39,42,44,45,47,50,52,55,60,61,19,20,22,23,24,25,27,28,30,33,34,35,38,39,42,43,44,45,47,49,50,52,55,60,61,20,21,23,24,25,27,28,29,30,31,32,33,34,35,37,38,39,42,43,44,45,49,50,51,52,53,55,57,58,59,60,62,63,65,66,67,68,70,76,85,21,22,23,24,25,26,27,28,29,30,31,32,33,34,35,36,37,38,39,40,41,43,44,45,47,48,49,50,51,52,53,54,55,56,57,58,59,61,62,63,64,68,69,70,71,74,78,81,82,22,23,24,25,27,28,30,33,34,35,38,39,42,43,44,45,47,49,50,52,55,59,60,61,71,23,24,25,26,27,28,29,30,31,32,33,34,35,37,38,39,40,41,42,43,44,45,46,47,48,49,50,51,52,53,54,55,56,57,58,59,60,61,62,63,64,65,66,67,68,70,71,74,75,76,78,81,82,83,84,85,91,24,25,26,27,28,29,30,31,32,33,34,35,36,37,38,39,40,42,43,44,45,46,47,48,49,50,51,52,53,55,57,58,59,60,61,62,63,65,66,67,68,69,70,71,72,73,76,79,85,86,26,28,29,30,31,32,34,35,36,37,38,39,40,41,42,43,44,45,46,47,48,52,54,55,56,59,61,69,26,27,28,29,30,31,32,33,34,35,36,37,38,39,40,41,42,43,44,45,46,47,48,49,50,51,52,53,54,55,56,57,58,59,61,62,63,64,66,67,68,69,70,71,74,75,76,78,81,82,83,85,27,28,29,30,31,32,33,34,35,36,37,38,39,42,43,44,45,47,49,50,51,52,53,55,57,58,59,60,61,62,63,65,66,67,68,69,70,71,72,73,76,79,85,86,28,29,30,31,32,34,35,36,37,38,39,40,41,42,43,44,45,46,47,48,52,54,55,56,57,59,60,61,69,73,29,30,31,32,33,34,36,37,38,39,40,41,42,43,44,45,46,47,48,50,53,54,55,56,57,58,60,63,64,65,66,68,70,71,74,30,32,33,34,35,36,38,39,40,41,42,43,44,45,46,47,48,49,50,52,55,56,59,60,61,69,71,73,81,31,32,33,34,35,36,37,38,39,40,41,42,43,44,45,46,47,48,49,50,51,53,54,55,56,57,58,60,61,63,64,65,70,71,81,83,32,33,34,35,36,38,39,40,41,42,43,44,45,46,47,48,49,50,52,55,56,59,60,61,65,69,71,73,81,33,34,35,37,38,39,40,41,42,43,44,45,46,47,48,49,50,51,52,53,54,55,56,57,58,59,60,61,62,63,65,66,67,68,70,71,76,81,85,34,35,36,37,38,39,40,41,42,43,44,45,46,47,48,50,52,54,55,56,57,58,59,60,61,69,71,73,35,36,37,38,39,40,41,42,43,44,45,46,47,48,49,50,51,52,53,55,56,57,58,59,60,61,62,63,64,65,66,67,68,69,70,71,72,73,76,77,79,81,83,85,86,36,37,38,39,40,41,42,43,44,45,46,47,48,49,50,53,54,55,56,57,58,60,61,63,64,65,66,68,70,71,74,81,83,37,38,39,40,41,42,43,44,45,46,47,48,49,50,51,52,53,54,55,56,57,58,59,60,61,62,63,64,65,66,67,68,70,71,74,75,76,78,81,82,83,84,85,91,38,39,40,41,42,43,44,45,46,47,48,49,50,51,52,55,56,59,60,61,65,69,71,73,81,39,40,41,42,44,45,47,49,50,51,52,53,54,55,56,57,58,59,60,61,62,63,64,65,66,67,68,69,70,71,72,73,74,75,76,78,79,80,81,87,40,42,44,45,47,48,49,50,51,52,53,55,57,58,59,60,61,62,63,65,66,67,68,69,70,71,72,73,76,79,81,41,42,43,44,45,46,47,49,50,51,52,53,54,55,56,57,58,59,60,61,62,63,64,65,66,67,68,69,70,71,72,73,74,75,76,77,78,79,80,85,86,87,91,42,43,44,45,46,47,48,49,50,51,52,53,55,57,58,59,60,61,62,63,65,66,67,68,69,70,71,72,73,76,79,81,85,86,43,44,45,47,48,49,50,51,52,53,54,55,56,57,58,59,60,61,62,63,64,65,68,69,70,71,72,73,74,75,77,78,80,81,82,87,88,44,45,47,48,49,50,51,52,53,54,55,56,57,58,59,60,61,62,63,64,65,66,67,68,69,70,71,72,73,74,75,76,78,79,80,81,82,86,87,88,89,45,46,47,48,49,50,51,52,53,54,55,56,57,58,59,60,61,65,70,71,81,46,47,48,49,50,51,52,53,54,55,56,59,61,62,63,64,66,69,71,81,83,47,48,49,50,51,52,53,54,55,56,57,58,59,60,61,62,63,64,65,66,67,68,69,70,71,72,73,74,75,76,77,78,79,80,81,82,85,86,87,88,89,91,48,49,50,51,52,53,54,55,56,57,58,59,60,62,63,64,65,66,67,68,69,70,72,73,74,75,76,77,78,79,80,81,83,84,85,86,91,49,50,51,52,53,54,55,56,57,58,59,60,61,62,63,64,65,66,67,68,69,70,71,72,73,74,75,76,77,78,79,80,81,83,84,85,86,87,90,91,50,52,53,54,55,56,57,58,59,60,61,62,63,64,65,66,67,68,69,70,71,72,73,74,76,77,78,80,82,85,87,51,52,54,55,56,57,59,60,61,65,69,72,73,77,81,52,53,54,55,56,57,58,59,60,61,62,63,64,65,66,67,68,69,70,71,72,73,74,76,77,78,79,80,81,82,83,84,85,86,87,90,53,54,55,56,57,58,60,61,63,64,65,66,68,70,71,74,75,78,81,82,83,84,54,55,56,57,58,59,60,61,65,69,71,72,73,77,81,55,56,57,58,59,60,61,62,63,64,65,66,67,68,69,70,71,72,73,76,77,79,81,83,85,86,56,57,59,60,61,62,65,67,69,71,72,73,77,81,57,58,59,60,61,62,63,65,66,67,68,69,70,71,72,73,76,79,81,85,86,59,60,61,62,63,64,65,66,69,70,71,73,81,83,59,60,61,62,63,64,65,66,67,69,70,71,72,73,77,80,81,83,87,60,61,63,64,65,66,68,69,70,71,72,73,74,75,77,78,80,81,82,83,84,87,88,90,61,62,63,64,66,67,68,69,70,71,74,75,76,78,81,82,83,84,85,91,62,63,64,65,66,67,68,69,70,71,72,73,74,75,76,77,78,79,80,81,82,83,84,85,86,91,63,64,65,66,68,69,70,71,72,73,74,75,76,77,78,79,80,81,82,83,84,86,87,88,89,90,65,67,69,70,71,72,73,77,81,65,66,67,68,69,70,71,72,73,76,77,79,81,85,86,66,67,68,69,70,71,73,74,75,76,78,79,81,82,83,84,85,86,91,67,68,69,70,71,72,73,74,75,77,78,80,81,82,83,84,85,87,88,90,91,68,69,70,71,72,73,74,75,76,77,78,79,80,81,82,83,84,86,87,88,89,90,69,70,71,72,73,77,80,81,83,87,70,71,74,75,76,78,81,82,83,84,85,91,71,72,73,74,75,76,77,79,80,81,83,85,86,87,91,72,73,74,75,76,77,78,79,80,81,82,83,84,85,86,87,88,90,91,73,74,75,76,78,79,81,82,83,84,85,86,91,74,75,76,77,78,80,81,82,83,84,85,87,88,90,91,76,77,79,80,81,83,85,86,87,76,77,78,79,80,81,82,83,84,85,86,87,88,89,90,77,78,80,81,82,83,84,85,87,88,90,91,78,79,80,81,82,83,84,85,86,87,88,89,91,79,80,81,83,85,86,87,91,80,81,82,83,84,85,87,88,90,91,81,82,83,84,85,86,90,91,82,85,86,87,88,89,91,83,84,85,86,87,90,91,85,86,87,88,89,91,85,86,87,88,89,91,86,87,88,89,90,87,88,90,91,90,91,90,91,90,91,91];

USEFUL_RES = [{},
	{1,2,4,5,6,8,9,10},
	{1,2,3,4,5,6,7,8,9,10},
	{1,2,4,5,9},
	{1,4,5,6,8,9,10},
	{1,2,3,4,5,7,9},
	{1,2,4,5,9},
	{1,2,4,5,9},
	{1,2,3,4,5,6,7,8,9,10},
	{1,2,4,5,9},
	{1,2,3,4,5,6,7,8,9,10},
	{6,8,10},
	{3,5,7},
	{1,3,5,6,7,8,10},
	{3,4,5,6,7,8,9,10},
	{1,4,6,8,10},
	{6,8,10},
	{1,2,4,5,9},
	{1,2,3,4,5,6,7,8,9,10},
	{1,2,4,5,9},
	{1,3,5,6,7,8,10},
	{1,2,3,4,5,7,9},
	{4,5,9},
	{6,8,10},
	{1,3,4,5,7},
	{1,2,4,5,6,8,9,10},
	{1,2,4,5,6,8,9,10},
	{1,2,4,5,6,8,9,10},
	{1,4},
	{5,6,8,10},
	{1,3,5,6,7,8,10},
	{1,2,3,4,5,6,7,8,9,10},
	{6,8,10},
	{6,8,10},
	{1,2,3,4,5,6,7,8,9,10},
	{1,2,4,5,9},
	{1,4},
	{3,5,7},
	{1,2,4,5,6,8,9,10},
	{1,2,4,5,9},
	{3,5,6,7,8,10},
	{1,2,4,5,6,8,9,10},
	{1,2,4,5,6,8,9,10},
	{1,2,3,4,5,7,9},
	{1,2,4,5,9},
	{1,2,4,5,9},
	{1,2,3,4,5,7,9},
	{1,3,5,6,7,8,10},
	{6,8,10},
	{1,2,4,5,6,8,9,10},
	{1,2,3,4,5,6,7,8,9,10},
	{1,2,3,4,5,7,9},
	{1,2,4,5,6,8,9,10},
	{1,2,3,4,5,7,9},
	{1,2,4,5,9},
	{1,3,4,5,7},
	{1,4},
	{1,2,3,4,5,7,9},
	{1,2,4,5,9},
	{1,2,4,5,9},
	{1,4},
	{3,5,6,7,8,10},
	{1,2,4,5,9},
	{1,4},
	{1,2,4,5,9},
	{1,2,3,4,5,7,9},
	{1,3,4,5,6,7,8,10},
	{1,6,8,10},
	{3,4,5,7,9},
	{1,2,4,5,9},
	{3,5,7},
	{4,5,9},
	{1,2,4,5,6,8,9,10},
	{3,5,7},
	{3,5,7},
	{1,2,4,5,6,8,9,10},
	{1,6,8,10},
	{1,2,3,4,5,7,9},
	{1,2,4,5,9},
	{3,5,7},
	{1,3,4,5,6,7,8,10},
	{3,5,7},
	{4,5,9},
	{1,2,4,5,9},
	{5},
	{1,2,4,5,9},
	{1,2,3,4,5,7,9},
	{3,5,7},
	{1,2,4,5,9},
	{1,2,3,4,5,7,9},
	{1,2,4,5,9},
	{}];

POTENTIAL_ACT = [{2,3,4,5,6,7,8,9,10,11,14,16,18,19,20,21,22,25,26,27,28,29,31,32,35,36,37,39,40,42,43,44,45,46,47,48,50,51,52,53,54,55,56,57,58,59,60,61,63,64,65,66,67,68,70,73,76,77,78,79,81,84,86,87,89,90,91},
	{2,3,4,6,7,8,9,10,11,18,19,20,22,26,27,28,32,35,36,39,40,42,43,44,45,46,47,50,51,52,53,54,55,58,59,60,63,65,66,70,73,76,78,79,84,86,87,89,90,91},
	{3,6,9,11,13,14,15,19,21,22,25,31,32,35,38,41,44,47,48,51,52,54,56,58,62,66,67,69,71,74,75,78,80,81,82,87,88,90},
	{2,3,4,5,6,7,8,9,10,11,15,16,18,19,20,22,23,25,26,27,28,29,32,35,36,37,39,40,42,43,44,45,46,47,50,51,52,53,54,55,56,57,58,59,60,61,63,64,65,66,67,69,70,72,73,76,78,79,81,83,84,86,87,89,90,91},
	{2,3,4,5,6,7,8,9,10,11,13,14,15,18,19,20,21,22,23,25,26,27,28,30,31,32,35,36,38,39,40,41,42,43,44,45,46,47,48,50,51,52,53,54,55,56,58,59,60,62,63,65,66,67,69,70,71,72,73,74,75,76,78,79,80,81,82,83,84,85,86,87,88,89,90,91},
	{2,3,5,9,11,12,14,15,16,17,19,21,24,26,27,28,30,31,32,33,34,35,39,41,42,43,48,49,50,51,53,62,67,68,73,76,77,81},
	{3,6,9,11,13,14,15,19,21,22,25,31,32,35,38,41,44,47,48,51,52,54,56,58,62,66,67,69,71,74,75,78,80,81,82,87,88,90},
	{2,3,5,9,11,12,14,15,16,17,19,21,24,26,27,28,30,31,32,33,34,35,39,41,42,43,48,49,50,51,53,62,67,68,73,76,77,81},
	{2,3,4,5,6,7,8,9,10,11,15,18,19,20,22,23,26,27,28,32,35,36,39,40,42,43,44,45,46,47,50,51,52,53,54,55,58,59,60,63,65,66,69,70,72,73,76,78,79,83,84,86,87,89,90,91},
	{2,3,5,9,11,12,14,15,16,17,19,21,24,26,27,28,30,31,32,33,34,35,39,41,42,43,48,49,50,51,53,62,67,68,73,76,77,81}];
